c R-MAT graph saved from XMT
p sp 16 148
a 1 9 3
a 1 13 2
a 1 15 3
a 1 16 2
a 2 3 3
a 2 4 3
a 2 5 0
a 2 7 2
a 2 9 0
a 2 13 1
a 2 14 2
a 3 2 3
a 3 6 2
a 3 7 1
a 3 10 0
a 3 11 0
a 3 12 2
a 3 13 3
a 3 14 3
a 3 16 1
a 4 2 3
a 4 7 0
a 4 8 3
a 4 9 1
a 4 10 0
a 4 12 3
a 4 14 2
a 4 15 1
a 4 16 0
a 5 2 0
a 5 6 3
a 5 8 2
a 5 9 3
a 5 10 0
a 5 11 1
a 5 12 0
a 5 13 2
a 5 14 0
a 5 15 1
a 5 16 0
a 6 3 2
a 6 5 3
a 6 7 2
a 6 8 1
a 6 9 3
a 6 10 1
a 6 12 1
a 6 13 3
a 6 16 2
a 7 2 2
a 7 3 1
a 7 4 0
a 7 6 2
a 7 8 1
a 7 9 3
a 7 10 2
a 7 11 0
a 7 12 0
a 7 14 2
a 7 16 1
a 8 4 3
a 8 5 2
a 8 6 1
a 8 7 1
a 8 9 2
a 8 13 0
a 8 15 3
a 8 16 1
a 9 1 3
a 9 2 0
a 9 4 1
a 9 5 3
a 9 6 3
a 9 7 3
a 9 8 2
a 9 11 3
a 9 12 2
a 9 13 2
a 9 14 3
a 9 16 2
a 10 3 0
a 10 4 0
a 10 5 0
a 10 6 1
a 10 7 2
a 10 11 2
a 10 12 2
a 10 13 1
a 10 14 2
a 10 16 1
a 11 3 0
a 11 5 1
a 11 7 0
a 11 9 3
a 11 10 2
a 11 13 0
a 11 14 1
a 11 16 0
a 12 3 2
a 12 4 3
a 12 5 0
a 12 6 1
a 12 7 0
a 12 9 2
a 12 10 2
a 12 13 1
a 12 14 1
a 12 15 3
a 13 1 2
a 13 2 1
a 13 3 3
a 13 5 2
a 13 6 3
a 13 8 0
a 13 9 2
a 13 10 1
a 13 11 0
a 13 12 1
a 13 14 2
a 13 16 0
a 14 2 2
a 14 3 3
a 14 4 2
a 14 5 0
a 14 7 2
a 14 9 3
a 14 10 2
a 14 11 1
a 14 12 1
a 14 13 2
a 14 15 2
a 15 1 3
a 15 4 1
a 15 5 1
a 15 8 3
a 15 12 3
a 15 14 2
a 16 1 2
a 16 3 1
a 16 4 0
a 16 5 0
a 16 6 2
a 16 7 1
a 16 8 1
a 16 9 2
a 16 10 1
a 16 11 0
a 16 13 0